/*********************************************
    * Lab01 - simple
    * Author: Coso
    * Creation Date: Mar, 2019
    *********************************************/
instance_name = "medium_instance_24_simple";

d = 5;
r = 15;

SCj = [172 178 146 139 159];
Dk = [22 22 90 94 66 24 55 18 10 77 69 21 14 95 93];

Cjk = [[67 70 83 37 77 60 73 43 54 55 41 66 73 41 63]
 [82 42 76 79 55 61 31 41 35 85 36 65 45 66 83]
 [56 54 69 56 36 72 41 67 62 52 39 31 64 35 79]
 [54 57 79 71 61 35 73 69 37 46 88 85 50 87 32]
 [68 74 39 76 60 39 49 84 65 39 85 85 43 36 79]];
